Please solve the following SAT Problem encoded in DIMACS format, provide line of thoughts, write your final answer as a single solution at the end of response with header 'answer: ' : 
p cnf 10 45
-6 -7 -9 0
-9 2 3 0
9 7 -8 0
-8 -5 -3 0
-8 -6 -5 0
-7 -9 -6 0
8 -9 -6 0
-5 -1 8 0
6 2 -7 0
-10 -1 2 0
-7 -8 2 0
5 -6 -7 0
3 2 -6 0
2 -6 8 0
-1 -10 5 0
-9 -1 -5 0
-9 -10 -1 0
-9 -8 5 0
-1 -6 -10 0
-1 2 -5 0
-10 2 3 0
-5 -3 -10 0
-7 -8 -1 0
-10 8 -4 0
5 -6 -10 0
-4 -5 2 0
-1 -5 3 0
-6 2 -9 0
-10 -1 2 0
1 -10 -2 0
-3 -7 -10 0
3 -7 -5 0
-1 -4 -5 0
8 -9 -7 0
-5 2 -4 0
-1 3 -9 0
-6 -9 -4 0
-6 -5 -9 0
-10 -6 -8 0
2 3 -5 0
5 -8 -6 0
-10 -8 4 0
3 -7 -10 0
-6 2 7 0
4 3 -5 0

